files/upTests/tuplesComplex2/0001.eprime.solution
language ESSENCE' 1.0
$ minion Nodes: 5
$ minion TotalTime: 0.001326
$ Savile Row TotalTime: 0.635
letting pain_tuple2_tuple2_ExplicitVarSize_tuple1 be [0, 1]
letting pain_tuple1_tuple2_ExplicitVarSize_tuple2_tuple2 be [5, 5]
letting pain_tuple2_tuple1_ExplicitVarSize_tuple2 be [1, 1]
letting pain_tuple2_tuple1_ExplicitVarSize_tuple1 be [0, 1]
letting pain_tuple1_tuple2_ExplicitVarSize_tuple2_tuple1 be [1, 1]
letting pain_tuple1_tuple1_ExplicitVarSize_tuple2 be [1, 3]
letting pain_tuple2_tuple2_ExplicitVarSize_tuple2_tuple2 be [6, 6]
letting pain_tuple1_tuple1_ExplicitVarSize_tuple1 be [0, 1]
letting pain_tuple2_tuple2_ExplicitVarSize_tuple2_tuple1 be [1, 2]
letting pain_tuple1_tuple2_ExplicitVarSize_tuple1 be [0, 1]
